# 52161
param k := 6;
param n := 60;
param s := 1;
set E :=  (0,16) (1,2) (1,25) (2,4) (2,52) (3,29) (3,40) (5,15) (6,56) (7,38) (8,19) (8,54) (9,18) (9,41) (10,41) (10,47) (11,42) (12,18) (12,24) (12,52) (13,36) (14,39) (14,49) (15,45) (16,22) (16,28) (17,30) (18,36) (18,47) (19,48) (20,41) (20,46) (21,31) (21,32) (22,52) (22,57) (23,27) (23,58) (24,40) (24,54) (25,32) (26,44) (26,46) (28,41) (30,33) (30,47) (30,53) (32,37) (33,34) (35,47) (37,56) (38,39) (38,58) (39,43) (42,49) (45,59) (47,51) (47,55) (47,58) (48,53) (50,58) (54,59) (56,57);